%nprocshared=32
%mem=40GB
%chk=AgAS_A1.chk
# opt b3lyp/6-31+g(d,p) geom=connectivity nosymm

Title Card Required

1 1
 C                  3.58682100    0.30767607   -1.12996300
 C                  2.34317136   -0.41855549   -1.67541996
 C                  2.36696921   -0.39150585   -3.21499847
 C                  3.63775301   -1.09890240   -3.72125796
 C                  4.88140264   -0.37267083   -3.17580099
 C                  4.85760479   -0.39972047   -1.63622249
 H                  3.58450291    1.32256256   -1.46893208
 H                  3.64007110   -2.11378889   -3.38228887
 H                  3.65428788   -1.08010817   -4.79096510
 H                  5.76434983   -0.86417363   -3.52755272
 H                  4.87908456    0.64221565   -3.51477008
 H                  2.36465113    0.62338063   -3.55396756
 C                  1.12331958   -1.11773742   -3.76045544
 C                  1.07238757    0.28884105   -1.16916047
 C                 -0.17126206   -0.43739051   -1.71461744
 C                 -0.14746421   -0.41034088   -3.25419595
 H                 -1.01155844   -0.91493035   -3.63318228
 H                 -0.14978230    0.60454561   -3.59316503
 H                  1.07006948    1.30372754   -1.50812956
 H                  1.05585270    0.27004683   -0.09945333
 H                 -0.16894398   -1.45227700   -1.37564835
 H                 -1.05420925    0.05411228   -1.36286571
 C                  2.34650768   -1.87923324   -1.18755791
 H                  3.22945486   -2.37073604   -1.53930964
 H                  2.32997280   -1.89802747   -0.11785077
 H                  1.48241345   -2.38382271   -1.56654425
 C                  1.12665590   -2.57841517   -3.27259339
 H                  1.11012103   -2.59720940   -2.20288624
 H                  0.26256167   -3.08300464   -3.65157972
 H                  2.00960308   -3.06991797   -3.62434512
 C                  1.14711744   -1.09068778   -5.30003394
 H                  0.28302321   -1.59527724   -5.67902028
 H                  1.14479935   -0.07580129   -5.63900303
 H                  2.03006462   -1.58219057   -5.65178567
 C                  3.56302314    0.28062643    0.40961551
 H                  4.42711737    0.78521590    0.78860185
 H                  2.68007596    0.77212923    0.76136723
 H                  3.56534123   -0.73426005    0.74858460
 C                  4.86094111   -1.86039822   -1.14836043
 H                  3.99684688   -2.36498769   -1.52734677
 H                  5.74388829   -2.35190101   -1.50011216
 H                  4.84440624   -1.87919245   -0.07865329

 1 2 1.0 6 1.0 7 1.0 35 1.0
 2 3 1.0 14 1.0 23 1.0
 3 4 1.0 12 1.0 13 1.0
 4 5 1.0 8 1.0 9 1.0
 5 6 1.0 10 1.0 11 1.0
 6 39 1.0
 7
 8
 9
 10
 11
 12
 13 16 1.0 27 1.0 31 1.0
 14 15 1.0 19 1.0 20 1.0
 15 16 1.0 21 1.0 22 1.0
 16 17 1.0 18 1.0
 17
 18
 19
 20
 21
 22
 23 24 1.0 25 1.0 26 1.0
 24
 25
 26
 27 28 1.0 29 1.0 30 1.0
 28
 29
 30
 31 32 1.0 33 1.0 34 1.0
 32
 33
 34
 35 36 1.0 37 1.0 38 1.0
 36
 37
 38
 39 40 1.0 41 1.0 42 1.0
 40
 41
 42

